(declare-const term_to_project_onto3_integralized Int)
(declare-const term_to_project_onto17_integralized Int)
(declare-const term_to_project_onto2_integralized Int)
(declare-const term_to_project_onto5_integralized Int)
(declare-const term_to_project_onto6_integralized Int)
(declare-const term_to_project_onto_integralized Int)
(declare-const term_to_project_onto16_integralized Int)
(declare-const term_to_project_onto10_integralized Int)
(declare-const term_to_project_onto0_integralized Int)
(declare-const term_to_project_onto12_integralized Int)
(declare-const term_to_project_onto1_integralized Int)
(declare-const term_to_project_onto15_integralized Int)
(declare-const term_to_project_onto4_integralized Int)
(declare-const term_to_project_onto14_integralized Int)
(declare-const term_to_project_onto8_integralized Int)
(declare-const term_to_project_onto13_integralized Int)
(declare-const term_to_project_onto11_integralized Int)
(declare-const term_to_project_onto7_integralized Int)
(declare-const term_to_project_onto9_integralized Int)
(declare-const tmp Int)
(assert (exists
         ((|tmp'?1?1| Int) (pos1?2?2 Int) (val0?3?3 Int) (val1?4?4 Int)
            (__cil_tmp9?5?5 Int) (__cil_tmp10?6?6 Int) (pos1@pos?7?7 Int)
            (pos1@width?8?8 Int) (type_err?9?9 Int) (type_err?10?10 Int)
            (tr?11?11 Int) (tr?12?12 Int) (|pos0'?13?13| Int)
            (|pos1'?14?14| Int) (|val0'?15?15| Int) (|val1'?16?16| Int)
            (|__cil_tmp9'?17?17| Int) (|__cil_tmp10'?18?18| Int)
            (|return'?19?19| Int) (|param0'?20?20| Int)
            (|pos0@pos'?21?21| Int) (|pos1@pos'?22?22| Int)
            (|return@pos'?23?23| Int) (|param0@pos'?24?24| Int)
            (|pos0@width'?25?25| Int) (|pos1@width'?26?26| Int)
            (|return@width'?27?27| Int) (|param0@width'?28?28| Int)
            (K?29?29 Int) (|gl_list.next'?30?30| Int)
            (|gl_list.4'?31?31| Int) (|pos0'?32?32| Int) (|pos1'?33?33| Int)
            (|val0'?34?34| Int) (|val1'?35?35| Int) (|__cil_tmp9'?36?36| Int)
            (|__cil_tmp10'?37?37| Int) (|return'?38?38| Int)
            (|param0'?39?39| Int) (|param1'?40?40| Int) (|param2'?41?41| Int)
            (|gl_list.next@pos'?42?42| Int) (|gl_list.4@pos'?43?43| Int)
            (|pos0@pos'?44?44| Int) (|pos1@pos'?45?45| Int)
            (|return@pos'?46?46| Int) (|param0@pos'?47?47| Int)
            (|param1@pos'?48?48| Int) (|param2@pos'?49?49| Int)
            (|gl_list.next@width'?50?50| Int) (|gl_list.4@width'?51?51| Int)
            (|pos0@width'?52?52| Int) (|pos1@width'?53?53| Int)
            (|return@width'?54?54| Int) (|param0@width'?55?55| Int)
            (|param1@width'?56?56| Int) (|param2@width'?57?57| Int)
            (|any_change'?58?58| Int) (K?59?59 Int)
            (|param2@width'?60?60| Int) (|param1@width'?61?61| Int)
            (|param0@width'?62?62| Int) (|return@width'?63?63| Int)
            (|gl_list.4@width'?64?64| Int) (|gl_list.next@width'?65?65| Int)
            (|param2@pos'?66?66| Int) (|param1@pos'?67?67| Int)
            (|param0@pos'?68?68| Int) (|return@pos'?69?69| Int)
            (|gl_list.4@pos'?70?70| Int) (|gl_list.next@pos'?71?71| Int)
            (|param2'?72?72| Int) (|param1'?73?73| Int) (|param0'?74?74| Int)
            (|return'?75?75| Int) (|gl_list.4'?76?76| Int)
            (|gl_list.next'?77?77| Int) (gl_list.4@width?78?78 Int)
            (gl_list.4@pos?79?79 Int) (gl_list.4?80?80 Int)
            (param2@width?81?81 Int) (param2@pos?82?82 Int)
            (param2?83?83 Int) (param1@width?84?84 Int)
            (param1@pos?85?85 Int) (param1?86?86 Int) (type_err?87?87 Int)
            (type_err?88?88 Int) (tr?89?89 Int) (return@width?90?90 Int)
            (return@pos?91?91 Int) (return?92?92 Int)
            (param0@width?93?93 Int) (param0@pos?94?94 Int)
            (param0?95?95 Int) (gl_list.next@width?96?96 Int)
            (gl_list.next@pos?97?97 Int) (gl_list.next?98?98 Int))
         (and (<= (+ |any_change'?58?58| (- K?59?59)) 0)
                (or (and (= K?59?59 0)
                           (= (+ (- |param2@width'?57?57|) param2@width?81?81) 0)
                           (= (+ (- |param1@width'?56?56|) param1@width?84?84) 0)
                           (= (+ (- |param0@width'?55?55|) param0@width?93?93) 0)
                           (= (+ (- |return@width'?54?54|) return@width?90?90) 0)
                           (= (+ (- |pos1@width'?53?53|) pos1@width?8?8) 0)
                           (= (+ (- |pos0@width'?52?52|) type_err?87?87) 0)
                           (= (+ (- |gl_list.4@width'?51?51|)
                                   gl_list.4@width?78?78) 0)
                           (= (+ (- |gl_list.next@width'?50?50|)
                                   gl_list.next@width?96?96) 0)
                           (= (+ (- |param2@pos'?49?49|) param2@pos?82?82) 0)
                           (= (+ (- |param1@pos'?48?48|) param1@pos?85?85) 0)
                           (= (+ (- |param0@pos'?47?47|) param0@pos?94?94) 0)
                           (= (+ (- |return@pos'?46?46|) return@pos?91?91) 0)
                           (= (+ (- |pos1@pos'?45?45|) pos1@pos?7?7) 0)
                           (= (+ (- |pos0@pos'?44?44|) type_err?88?88) 0)
                           (= (+ (- |gl_list.4@pos'?43?43|)
                                   gl_list.4@pos?79?79) 0)
                           (= (+ (- |gl_list.next@pos'?42?42|)
                                   gl_list.next@pos?97?97) 0)
                           (= (+ (- |param2'?41?41|) param2?83?83) 0)
                           (= (+ (- |param1'?40?40|) param1?86?86) 0)
                           (= (+ (- |param0'?39?39|) param0?95?95) 0)
                           (= (+ (- |return'?38?38|) return?92?92) 0)
                           (= (+ (- |__cil_tmp10'?37?37|) __cil_tmp10?6?6) 0)
                           (= (+ (- |__cil_tmp9'?36?36|) __cil_tmp9?5?5) 0)
                           (= (+ (- |val1'?35?35|) val1?4?4) 0)
                           (= (+ (- |val0'?34?34|) val0?3?3) 0)
                           (= (+ (- |pos1'?33?33|) pos1?2?2) 0)
                           (= (+ (- |pos0'?32?32|) tr?89?89) 0)
                           (= (- |any_change'?58?58|) 0)
                           (= (+ (- |gl_list.4'?31?31|) gl_list.4?80?80) 0)
                           (= (+ (- |gl_list.next'?30?30|) gl_list.next?98?98) 0))
                      (and (<= (+ (- K?59?59) 1) 0)
                             (= (+ |pos0'?32?32| (- |param0'?39?39|)) 0)
                             (= (+ |__cil_tmp9'?36?36| (- |param1'?40?40|)) 0)
                             (= (+ |pos1'?33?33| (- |param1'?40?40|)) 0)
                             (= (+ |pos0@pos'?44?44| (- |param0@pos'?47?47|)) 0)
                             (= (+ |pos1@pos'?45?45| (- |param1@pos'?48?48|)) 0)
                             (= (+ |pos0@width'?52?52|
                                     (- |param0@width'?55?55|)) 0)
                             (= (+ |pos1@width'?53?53|
                                     (- |param1@width'?56?56|)) 0)
                             (= (+ |any_change'?58?58| -1) 0)
                             (<= (+ (- |val0'?34?34|) |val1'?35?35| 1) 0)))
                (<= (- K?59?59) 0) (<= (- |any_change'?58?58|) 0)
                (or (and (= K?29?29 0)
                           (= (+ (- |param0@width'?28?28|)
                                   |param0@width'?55?55|) 0)
                           (= (+ (- |return@width'?27?27|)
                                   |return@width'?54?54|) 0)
                           (= (+ (- |pos1@width'?26?26|) |pos1@width'?53?53|) 0)
                           (= (+ (- |pos0@width'?25?25|) |pos0@width'?52?52|) 0)
                           (= (+ (- |param0@pos'?24?24|) |param0@pos'?47?47|) 0)
                           (= (+ (- |return@pos'?23?23|) |return@pos'?46?46|) 0)
                           (= (+ (- |pos1@pos'?22?22|) |pos1@pos'?45?45|) 0)
                           (= (+ (- |pos0@pos'?21?21|) |pos0@pos'?44?44|) 0)
                           (= (+ (- |param0'?20?20|) |param0'?39?39|) 0)
                           (= (+ (- |return'?19?19|) |return'?38?38|) 0)
                           (= (+ (- |__cil_tmp10'?18?18|)
                                   |__cil_tmp10'?37?37|) 0)
                           (= (+ (- |__cil_tmp9'?17?17|) |__cil_tmp9'?36?36|) 0)
                           (= (+ (- |val1'?16?16|) |val1'?35?35|) 0)
                           (= (+ (- |val0'?15?15|) |val0'?34?34|) 0)
                           (= (+ (- |pos1'?14?14|) |pos1'?33?33|) 0)
                           (= (+ (- |pos0'?13?13|) |pos0'?32?32|) 0))
                      (and (<= (+ (- K?29?29) 1) 0)
                             (= (+ |val1'?16?16| (- |return'?19?19|)) 0)
                             (= (+ |__cil_tmp9'?17?17| (- |param0'?20?20|)) 0)
                             (= (+ |pos1'?14?14| (- |param0'?20?20|)) 0)
                             (= (+ |pos0'?13?13| (- |param0'?20?20|)) 0)
                             (= (+ |pos1@pos'?22?22| (- |param0@pos'?24?24|)) 0)
                             (= (+ |pos0@pos'?21?21| (- |param0@pos'?24?24|)) 0)
                             (= (+ |pos1@width'?26?26|
                                     (- |param0@width'?28?28|)) 0)
                             (= (+ |pos0@width'?25?25|
                                     (- |param0@width'?28?28|)) 0)
                             (<= (+ |val0'?15?15| (- |return'?19?19|)) 0)))
                (<= (- K?29?29) 0) (<= (+ (- tr?11?11) tr?12?12) 0)
                (<= (+ tr?11?11 (- tr?12?12)) 0)
                (or (<= (+ |any_change'?58?58| 1) 0)
                      (<= (+ (- |any_change'?58?58|) 1) 0))
                (= (+ |param2@width'?60?60| (- |param2@width'?57?57|)) 0)
                (= (+ |param1@width'?61?61| (- |param1@width'?56?56|)) 0)
                (= (+ |param0@width'?62?62| (- |param0@width'?28?28|)) 0)
                (= (+ (- type_err?9?9) |return@width'?63?63|) 0)
                (= (+ |gl_list.4@width'?64?64| (- |gl_list.4@width'?51?51|)) 0)
                (= (+ |gl_list.next@width'?65?65|
                        (- |gl_list.next@width'?50?50|)) 0)
                (= (+ |param2@pos'?66?66| (- |param2@pos'?49?49|)) 0)
                (= (+ |param1@pos'?67?67| (- |param1@pos'?48?48|)) 0)
                (= (+ |param0@pos'?68?68| (- |param0@pos'?24?24|)) 0)
                (= (+ (- type_err?10?10) |return@pos'?69?69|) 0)
                (= (+ |gl_list.4@pos'?70?70| (- |gl_list.4@pos'?43?43|)) 0)
                (= (+ |gl_list.next@pos'?71?71| (- |gl_list.next@pos'?42?42|)) 0)
                (= (+ |param2'?72?72| (- |param2'?41?41|)) 0)
                (= (+ |param1'?73?73| (- |param1'?40?40|)) 0)
                (= (+ |param0'?74?74| (- |param0'?20?20|)) 0)
                (= (+ |return'?75?75| (- |any_change'?58?58|)) 0)
                (= (+ |tmp'?1?1| (- |any_change'?58?58|)) 0)
                (= (+ |gl_list.4'?76?76| (- |gl_list.4'?31?31|)) 0)
                (= (+ |gl_list.next'?77?77| (- |gl_list.next'?30?30|)) 0)
                (= (+ term_to_project_onto17_integralized
                        (- (+ |gl_list.next'?77?77| (- gl_list.next?98?98)))) 0)
                (= (+ term_to_project_onto16_integralized
                        (- (+ |gl_list.4'?76?76| (- gl_list.4?80?80)))) 0)
                (= (+ term_to_project_onto15_integralized
                        (- (+ |tmp'?1?1| (- tmp)))) 0)
                (= (+ term_to_project_onto14_integralized
                        (- (+ |return'?75?75| (- return?92?92)))) 0)
                (= (+ term_to_project_onto13_integralized
                        (- (+ |param0'?74?74| (- param0?95?95)))) 0)
                (= (+ term_to_project_onto12_integralized
                        (- (+ |param1'?73?73| (- param1?86?86)))) 0)
                (= (+ term_to_project_onto11_integralized
                        (- (+ |param2'?72?72| (- param2?83?83)))) 0)
                (= (+ term_to_project_onto10_integralized
                        (- (+ |gl_list.next@pos'?71?71|
                                (- gl_list.next@pos?97?97)))) 0)
                (= (+ term_to_project_onto9_integralized
                        (- (+ |gl_list.4@pos'?70?70| (- gl_list.4@pos?79?79)))) 0)
                (= (+ term_to_project_onto8_integralized
                        (- (+ |return@pos'?69?69| (- return@pos?91?91)))) 0)
                (= (+ term_to_project_onto7_integralized
                        (- (+ |param0@pos'?68?68| (- param0@pos?94?94)))) 0)
                (= (+ term_to_project_onto6_integralized
                        (- (+ |param1@pos'?67?67| (- param1@pos?85?85)))) 0)
                (= (+ term_to_project_onto5_integralized
                        (- (+ |param2@pos'?66?66| (- param2@pos?82?82)))) 0)
                (= (+ term_to_project_onto4_integralized
                        (- (+ |gl_list.next@width'?65?65|
                                (- gl_list.next@width?96?96)))) 0)
                (= (+ term_to_project_onto3_integralized
                        (- (+ |gl_list.4@width'?64?64|
                                (- gl_list.4@width?78?78)))) 0)
                (= (+ term_to_project_onto2_integralized
                        (- (+ |return@width'?63?63| (- return@width?90?90)))) 0)
                (= (+ term_to_project_onto1_integralized
                        (- (+ |param0@width'?62?62| (- param0@width?93?93)))) 0)
                (= (+ term_to_project_onto0_integralized
                        (- (+ |param1@width'?61?61| (- param1@width?84?84)))) 0)
                (= (+ term_to_project_onto_integralized
                        (- (+ |param2@width'?60?60| (- param2@width?81?81)))) 0))))
(check-sat)